NAME : traveling-santa-2018-prime-paths.30278.tour
COMMENT : Length = 30278
COMMENT : Found by LKH [Keld Helsgaun] Mon Jun 27 15:57:37 2022
TYPE : TOUR
DIMENSION : 100
TOUR_SECTION
1
22
27
69
65
67
95
36
70
51
66
72
98
29
91
62
42
47
90
77
5
68
32
12
20
96
85
93
79
17
28
97
43
45
60
11
88
50
21
76
73
63
34
15
46
44
94
41
3
39
54
18
33
30
87
24
48
37
40
81
2
61
52
13
86
49
7
14
31
58
53
4
6
19
10
71
89
23
78
84
9
83
75
8
82
92
64
80
57
55
74
100
35
16
25
56
59
99
26
38
-1
EOF
